HmaxDs = 0.500000
HmaxUB_percent = 1.446308
HmaxUB_real = 6433.653041
FTnetDs = 0.500000
FTnetUB_percent = 1.267406
FTnetUB_real = 18088.045346
TIFgap = 0.400000
LimCIPF = 103.37678988
SCIP version 1.1.0 [precision: 8 byte] [memory: block] [mode: optimized] [LP solver: Clp 1.8.2]
Copyright (c) 2002-2008 Konrad-Zuse-Zentrum fuer Informationstechnik Berlin (ZIB)

reading user parameter file </home/fabio/docs/hierarquia/models/scip.set>

read problem <data.N30.I1.s1.backbone0.T5.GL2.W2.TIFgap0.4.mps.gz>
============

original problem has 335 variables (170 bin, 0 int, 0 impl, 165 cont) and 142 constraints

solve problem
=============

presolving:
(round 1) 3 del vars, 3 del conss, 4 chg bounds, 0 chg sides, 8 chg coeffs, 0 upgd conss, 0 impls, 40 clqs
(round 2) 5 del vars, 3 del conss, 4 chg bounds, 1 chg sides, 8 chg coeffs, 0 upgd conss, 0 impls, 40 clqs
(round 3) 5 del vars, 3 del conss, 4 chg bounds, 3 chg sides, 8 chg coeffs, 0 upgd conss, 0 impls, 40 clqs
(round 4) 5 del vars, 4 del conss, 4 chg bounds, 3 chg sides, 8 chg coeffs, 41 upgd conss, 0 impls, 40 clqs
(round 5) 56 del vars, 4 del conss, 20 chg bounds, 3 chg sides, 8 chg coeffs, 41 upgd conss, 916 impls, 28 clqs
(round 6) 56 del vars, 13 del conss, 20 chg bounds, 4 chg sides, 8 chg coeffs, 41 upgd conss, 916 impls, 28 clqs
(round 7) 56 del vars, 16 del conss, 20 chg bounds, 4 chg sides, 8 chg coeffs, 41 upgd conss, 916 impls, 28 clqs
(round 8) 72 del vars, 16 del conss, 20 chg bounds, 4 chg sides, 8 chg coeffs, 41 upgd conss, 3602 impls, 26 clqs
(round 9) 72 del vars, 17 del conss, 20 chg bounds, 4 chg sides, 9 chg coeffs, 41 upgd conss, 3602 impls, 26 clqs
presolving (10 rounds):
 72 deleted vars, 17 deleted constraints, 20 tightened bounds, 0 added holes, 4 changed sides, 9 changed coefficients
 3602 implications, 26 cliques
presolved problem has 263 variables (103 bin, 0 int, 0 impl, 160 cont) and 125 constraints
      1 constraints of type <knapsack>
     28 constraints of type <setppc>
     96 constraints of type <linear>
Presolving Time: 0.07

 time | node  | left  |LP iter| mem |mdpt |frac |vars |cons |ccons|cols |rows |cuts |confs|strbr|  dualbound   | primalbound  |  gap   
  0.1s|     1 |     0 |   116 | 957k|   0 |  31 | 263 | 125 | 125 | 263 | 123 |   0 |   0 |   0 | 3.866170e+01 |      --      |    Inf 
  0.2s|     1 |     0 |   398 |1045k|   0 |  39 | 263 | 125 | 125 | 263 | 163 |  40 |   0 |   0 | 3.683677e+03 |      --      |    Inf 
  0.4s|     1 |     0 |   548 |1087k|   0 |  44 | 263 | 125 | 125 | 263 | 187 |  64 |   0 |   0 | 7.657538e+03 |      --      |    Inf 
  0.6s|     1 |     0 |   685 |1119k|   0 |  45 | 263 | 125 | 125 | 263 | 202 |  79 |   0 |   0 | 9.503644e+03 |      --      |    Inf 
  0.9s|     1 |     0 |   762 |1135k|   0 |  55 | 263 | 125 | 125 | 263 | 213 |  90 |   0 |   0 | 9.542297e+03 |      --      |    Inf 
  1.1s|     1 |     0 |   913 |1155k|   0 |  61 | 263 | 125 | 125 | 263 | 234 | 111 |   0 |   0 | 9.773623e+03 |      --      |    Inf 
  1.4s|     1 |     0 |   995 |1168k|   0 |  57 | 263 | 125 | 125 | 263 | 247 | 124 |   0 |   0 | 1.011245e+04 |      --      |    Inf 
  1.6s|     1 |     0 |  1015 |1174k|   0 |  56 | 263 | 125 | 125 | 263 | 250 | 127 |   0 |   0 | 1.013569e+04 |      --      |    Inf 
  1.9s|     1 |     0 |  1058 |1176k|   0 |  62 | 263 | 125 | 125 | 263 | 253 | 130 |   0 |   0 | 1.020552e+04 |      --      |    Inf 
  2.1s|     1 |     0 |  1146 |1178k|   0 |  49 | 263 | 125 | 125 | 263 | 256 | 133 |   0 |   0 | 1.078678e+04 |      --      |    Inf 
  2.4s|     1 |     0 |  1150 |1180k|   0 |  49 | 263 | 125 | 125 | 263 | 258 | 135 |   0 |   0 | 1.078906e+04 |      --      |    Inf 
E 3.9s|     1 |     0 |  1153 |1187k|   0 |  49 | 263 | 125 | 125 | 263 | 258 | 135 |   0 |   0 | 1.078906e+04 | 1.616187e+04 |  49.80%
  3.9s|     1 |     0 |  1153 |1187k|   0 |  49 | 263 | 125 | 125 | 263 | 258 | 135 |   0 |   0 | 1.078906e+04 | 1.616187e+04 |  49.80%
  3.9s|     1 |     2 |  1153 |1187k|   0 |  49 | 263 | 125 | 125 | 263 | 258 | 135 |   0 |   0 | 1.078906e+04 | 1.616187e+04 |  49.80%

SCIP Status        : solving was interrupted [solution limit reached]
Solving Time (sec) : 3.89
Solving Nodes      : 1
Primal Bound       : +1.61618716495056e+04 (1 solutions)
Dual Bound         : +1.07890643286143e+04
Gap                : 49.80 %

primal solution:
================

objective value:                     16161.8716495056
b[1,1,3,1]                                          1 	(obj:0)
b[1,1,3,2]                                          1 	(obj:0)
b[3,1,5,1]                                          1 	(obj:0)
b[3,1,5,2]                                          1 	(obj:0)
b[2,2,3,1]                                          1 	(obj:0)
b[2,2,3,2]                                          1 	(obj:0)
b[3,3,1,2]                                          1 	(obj:0)
b[4,3,2,1]                                          1 	(obj:0)
b[3,3,2,2]                          0.999999999922284 	(obj:0)
b[1,3,4,1]                          0.999999999922284 	(obj:0)
b[3,3,4,2]                                          1 	(obj:0)
b[2,3,5,1]                                          1 	(obj:0)
b[4,4,3,1]                                          1 	(obj:0)
b[4,4,3,2]                                          1 	(obj:0)
b[3,5,1,1]                                          1 	(obj:0)
b[3,5,1,2]                                          1 	(obj:0)
b[5,5,3,2]                                          1 	(obj:0)
h[1,3]                                              1 	(obj:0)
h[1,5]                                              1 	(obj:0)
h[2,3]                                              1 	(obj:0)
h[3,4]                                              1 	(obj:0)
h[3,5]                                              1 	(obj:0)
qw[3,1,2,2]                         0.215276067970291 	(obj:0)
qw[3,1,3,2]                         0.231414527318158 	(obj:0)
qw[3,1,4,2]                              0.2411388094 	(obj:0)
qw[3,1,5,2]                              0.1942635252 	(obj:0)
qw[2,5,1,1]                              0.1433276433 	(obj:0)
qw[3,2,1,2]                        0.0582148802640416 	(obj:0)
qw[4,2,1,1]                         0.328581413035958 	(obj:0)
qw[2,5,3,1]                               0.190609944 	(obj:0)
qw[3,2,3,2]                         0.424257876781842 	(obj:0)
qw[2,5,4,1]                         0.188724757414667 	(obj:0)
qw[4,2,4,1]                         0.484095154814667 	(obj:0)
qw[3,2,5,2]                              0.2008949033 	(obj:0)
qw[1,3,1,2]                         0.348340720366397 	(obj:0)
qw[3,4,2,2]                         0.293966519506864 	(obj:0)
qw[2,3,2,2]                         0.820063111657664 	(obj:0)
qw[4,3,4,2]                              0.5159048452 	(obj:0)
qw[3,4,5,2]                         0.323407212474866 	(obj:0)
qw[5,3,5,2]                                         1 	(obj:0)
qw[1,4,1,1]                          0.65165927971085 	(obj:0)
qw[3,4,3,2]                              0.3443275959 	(obj:0)
qw[2,5,2,1]                         0.179936888342336 	(obj:0)
CIPF                                         72.43565 	(obj:0)
CustoTrafRetr                        16089.4359995056 	(obj:0)
TotalTrancpt                         9.99999999992228 	(obj:0)
CustoTotal                           16161.8716495056 	(obj:0)
Obj                                  16161.8716495056 	(obj:1)

Statistics
==========

SCIP Status        : solving was interrupted [solution limit reached]
Solving Time       :       3.89
Original Problem   :
  Problem name     : labtel
  Variables        : 335 (170 binary, 0 integer, 0 implicit integer, 165 continuous)
  Constraints      : 142 initial, 142 maximal
Presolved Problem  :
  Problem name     : t_labtel
  Variables        : 263 (103 binary, 0 integer, 0 implicit integer, 160 continuous)
  Constraints      : 125 initial, 125 maximal
Presolvers         :       Time  FixedVars   AggrVars   ChgTypes  ChgBounds   AddHoles    DelCons   ChgSides   ChgCoefs
  trivial          :       0.00          0          0          0          0          0          0          0          0
  dualfix          :       0.00          0          0          0          0          0          0          0          0
  boundshift       :       0.00          0          0          0          0          0          0          0          0
  inttobinary      :       0.00          0          0          0          0          0          0          0          0
  implics          :       0.00          0          0          0          0          0          0          0          0
  probing          :       0.06         60          7          0         16          0          0          0          0
  knapsack         :       0.00          0          0          0          0          0          0          0          0
  setppc           :       0.00          0          0          0          0          0         12          0          0
  linear           :       0.01          0          5          0          4          0          5          4          9
  root node        :          -          0          -          -          0          -          -          -          -
Constraints        :     Number  #Separate #Propagate    #EnfoLP    #EnfoPS    Cutoffs    DomReds       Cuts      Conss   Children
  integral         :          0          0          0          1          0          0          0          0          0          2
  knapsack         :          1         11        390          0          0          0          0          0          0          0
  setppc           :         28         11        390          0          0          2          0          0          0          0
  linear           :         96         11        388          0          0          8          0          3          0          0
  countsols        :          0          0          0          0          0          0          0          0          0          0
Constraint Timings :  TotalTime   Separate  Propagate     EnfoLP     EnfoPS
  integral         :       0.00       0.00       0.00       0.00       0.00
  knapsack         :       0.00       0.00       0.00       0.00       0.00
  setppc           :       0.00       0.00       0.00       0.00       0.00
  linear           :       0.04       0.01       0.03       0.00       0.00
  countsols        :       0.00       0.00       0.00       0.00       0.00
Propagators        :       Time      Calls    Cutoffs    DomReds
  rootredcost      :       0.00          0          0          0
  pseudoobj        :       0.00         12          0          0
Conflict Analysis  :       Time      Calls    Success  Conflicts   Literals    Reconvs ReconvLits   LP Iters
  propagation      :       0.00          0          0          0        0.0          0        0.0          -
  infeasible LP    :       0.00          0          0          0        0.0          0        0.0          0
  bound exceed. LP :       0.00          0          0          0        0.0          0        0.0          0
  strong branching :       0.00          0          0          0        0.0          0        0.0          0
  pseudo solution  :       0.00          0          0          0        0.0          0        0.0          -
  applied globally :          -          -          -          0        0.0          -          -          -
  applied locally  :          -          -          -          0        0.0          -          -          -
Separators         :       Time      Calls    Cutoffs    DomReds       Cuts      Conss
  cut pool         :       0.00         10          -          -         37          -    (maximal pool size: 232)
  redcost          :       0.00         11          0          0          0          0
  impliedbounds    :       0.00         11          0          0         34          0
  intobj           :       0.00          0          0          0          0          0
  gomory           :       0.05         11          0          0         26          0
  strongcg         :       0.04         11          0          0          0          0
  cmir             :       0.80         10          0          0        140          0
  flowcover        :       1.23         10          0          0         59          0
  clique           :       0.01         11          0          0         13          0
  zerohalf         :       0.00          0          0          0          0          0
  mcf              :       0.00          0          0          0          0          0
Pricers            :       Time      Calls       Vars
  problem variables:       0.00          0          0
Branching Rules    :       Time      Calls    Cutoffs    DomReds       Cuts      Conss   Children
  relpscost        :       0.00          1          0          0          0          0          2
  pscost           :       0.00          0          0          0          0          0          0
  inference        :       0.00          0          0          0          0          0          0
  mostinf          :       0.00          0          0          0          0          0          0
  leastinf         :       0.00          0          0          0          0          0          0
  fullstrong       :       0.00          0          0          0          0          0          0
  allfullstrong    :       0.00          0          0          0          0          0          0
  random           :       0.00          0          0          0          0          0          0
Primal Heuristics  :       Time      Calls      Found
  LP solutions     :       0.00          -          0
  pseudo solutions :       0.00          -          0
  oneopt           :       0.00          0          0
  simplerounding   :       0.00          0          0
  rounding         :       0.00         12          0
  shifting         :       0.00         12          0
  intshifting      :       0.00          1          0
  fixandinfer      :       0.00          0          0
  feaspump         :       0.02          1          0
  coefdiving       :       0.00          0          0
  pscostdiving     :       0.00          0          0
  fracdiving       :       0.00          0          0
  veclendiving     :       0.00          0          0
  intdiving        :       0.00          0          0
  actconsdiving    :       0.00          0          0
  objpscostdiving  :       0.00          0          0
  rootsoldiving    :       0.00          0          0
  linesearchdiving :       0.00          0          0
  guideddiving     :       0.00          0          0
  octane           :       0.00          0          0
  rens             :       1.51          1          1
  rins             :       0.00          0          0
  localbranching   :       0.00          0          0
  mutation         :       0.00          0          0
  crossover        :       0.00          0          0
  dins             :       0.00          0          0
LP                 :       Time      Calls Iterations  Iter/call   Iter/sec
  primal LP        :       0.00          0          0       0.00          -
  dual LP          :       0.10         11        957      87.00    9570.00
  barrier LP       :       0.00          0          0       0.00          -
  diving/probing LP:       0.02         16        196      12.25    9800.00
  strong branching :       0.00          0          0       0.00          -
    (at root node) :          -          0          0       0.00          -
  conflict analysis:       0.00          0          0       0.00          -
B&B Tree           :
  number of runs   :          1
  nodes            :          1
  nodes (total)    :          1
  nodes left       :          2
  max depth        :          0
  max depth (total):          0
  backtracks       :          0 (0.0%)
  delayed cutoffs  :          0
  repropagations   :          0 (0 domain reductions, 0 cutoffs)
  avg switch length:       1.00
  switching time   :       0.00
Solution           :
  Solutions found  :          1 (1 improvements)
  Primal Bound     : +1.61618716495056e+04   (in run 1, after 1 nodes, 3.87 seconds, depth 0, found by <rens>)
  Dual Bound       : +1.07890643286143e+04
  Gap              :      49.80 %
  Root Dual Bound  : +1.07890643286143e+04
Reading model section from /home/fabio/docs/hierarquia/models/calc-cong.mod...
129 lines were read
Reading data section from data.N30.I1.s1.backbone0.T5.GL2.W2.TIFgap0.4.sol...
86 lines were read

Display statement at line 45
A[1] = 6472.743
A[2] = 7025.63
A[3] = 7177.38
A[4] = 8896.66
A[5] = 5410.64

Display statement at line 48
LigLog[1,3] = 1
LigLog[1,4] = 1
LigLog[2,3] = 1
LigLog[2,5] = 1
LigLog[3,1] = 1
LigLog[3,2] = 1
LigLog[3,4] = 1
LigLog[4,2] = 1
LigLog[4,3] = 1
LigLog[5,3] = 1

Display statement at line 51
TrafMedio[1,3] = 2254.71995936655
TrafMedio[1,4] = 4218.02304113345
TrafMedio[2,3] = 5761.45999915543
TrafMedio[2,5] = 5238.99300088863
TrafMedio[3,1] = 6369.82000152165
TrafMedio[3,2] = 4508.83995797248
TrafMedio[3,4] = 6286.50999880876
TrafMedio[4,2] = 6433.65304119206
TrafMedio[4,3] = 4589.83000009703
TrafMedio[5,3] = 5410.64

Congestionamento: 6433.65304119206

MTB: 4448.33

Model has been successfully generated
